(declare-const a Real)
(declare-const b Real)
(declare-const c Real)
(assert (= (* a b c) 1))
(assert (> a 0))
(assert (> b 0))
(assert (> c 0))
(assert (not (<= (+ (/ 3 2) (* -1 (pow (+ (* (pow a -1) (pow (+ b c) -1)) (* (pow c -1) (pow (+ a b) -1))) -1) (pow (+ (* a b (pow c -1) (pow (+ a b) -1)) (* b c (pow a -1) (pow (+ b c) -1))) 2)) (* -2 (pow a 2) (pow c 2) (pow (+ 1 (pow b 2)) -1) (pow (+ a c) -1))) 0)))
(check-sat)
(get-model)
(exit)